
# Ensuring that neighboring base sites are included when simulating across many processors
comm_modify mode single cutoff 30.0

# For a single processor calculation
variable T equal 300 # Simulation temperature
variable salt equal 100.0 # Salt concentration [mM]

# Random number seed for Langevin integrator
variable random equal 12345

# Specify the different interaction styles
bond_style      class2
angle_style     hybrid harmonic stacking/3spn2
dihedral_style  3spn2
# pair_stype 3spn2 [dna type] [temperature] [salt concentration (mM)] [short range cutoff] [Coulombic cutoff]
pair_style      hybrid/overlay 3spn2 bdna ${T} ${salt} 18.0 20.0 coul/long 20.0 coul/diel 12 gauss/cut 12.0 gauss/cut 12.0 lj/cut 12.0
pair_style      hybrid/overlay 3spn2 bdna 300 ${salt} 18.0 20.0 coul/long 20.0 coul/diel 12 gauss/cut 12.0 gauss/cut 12.0 lj/cut 12.0
pair_style      hybrid/overlay 3spn2 bdna 300 100 18.0 20.0 coul/long 20.0 coul/diel 12 gauss/cut 12.0 gauss/cut 12.0 lj/cut 12.0

# Periodic boundary conditions
boundary p p p

# Turn on Newton's 2nd law
newton on  #yes

# Read in the configuration
read_data bdna_ions_conf.in
  orthogonal box = (-87.0688 -87.0688 -87.0688) to (87.0688 87.0688 87.0688)
  1 by 1 by 1 MPI processor grid
  reading atoms ...
  1079 atoms
  scanning bonds ...
  2 = max bonds/atom
  scanning angles ...
  3 = max angles/atom
  scanning dihedrals ...
  1 = max dihedrals/atom
  reading bonds ...
  188 bonds
  reading angles ...
  308 angles
  reading dihedrals ...
  120 dihedrals
  3 = max # of 1-2 neighbors
  4 = max # of 1-3 neighbors
  6 = max # of 1-4 neighbors
  9 = max # of special neighbors
  special bonds CPU = 0.000316143 secs
  read_data CPU = 0.01703 secs

# Specify the pair coefficients
pair_coeff  1   1   3spn2   0.239006    4.500000
pair_coeff  2   2   3spn2   0.239006    6.200000
pair_coeff  3   3   3spn2   0.239006    5.400000
pair_coeff  4   4   3spn2   0.239006    7.100000
pair_coeff  5   5   3spn2   0.239006    4.900000
pair_coeff  6   6   3spn2   0.239006    6.400000
pair_coeff  7   7   3spn2   0.239006    5.400000
pair_coeff  8   8   3spn2   0.239006    7.100000
pair_coeff  9   9   3spn2   0.239006    4.900000
pair_coeff  10  10  3spn2   0.239006    6.400000
pair_coeff  11  11  3spn2   0.239006    5.400000
pair_coeff  12  12  3spn2   0.239006    7.100000
pair_coeff  13  13  3spn2   0.239006    4.900000
pair_coeff  14  14  3spn2   0.239006    6.400000
pair_modify mix arithmetic

pair_coeff 1*17 15*17 none # Zeroing out other interactions

# Specifying the ion parameters from Freeman et al. JCP, 135:165104, 2011.
variable myDielectric equal 78
dielectric ${myDielectric}
dielectric 78


#Turnin off pair interactions from 3SPN2
pair_coeff 1 1*17 none
pair_coeff 2*17 15*17 none

# Apply LJ attraction between ion sites
pair_coeff 1 1 lj/cut  0.18379 6.86 # P-Na+
pair_coeff 1 15 lj/cut  0.02510 4.14 # P-Na+
pair_coeff 1 16 lj/cut  0.11950 4.87 # P-Mg#+
pair_coeff 1 17 lj/cut  0.08121 5.5425 # P-Cl-
pair_coeff 15 15 lj/cut 0.01121 2.43 # Na+-Na+
pair_coeff 15 16 lj/cut 0.04971 2.37 # Na+-Mg2+
pair_coeff 15 17 lj/cut 0.08387 3.1352 # Na+-Cl-
pair_coeff 16 16 lj/cut 0.89460 1.412 # Mg2+-Mg2+
pair_coeff 16 17 lj/cut 0.49737 4.74 # Mg2+-Cl-
pair_coeff 17 17 lj/cut 0.03585 4.045 # Cl--Cl-

# Apply coul/long between all ions (solve using ewald sum)
pair_coeff 1 1 coul/long
pair_coeff 1 15*17 coul/long
pair_coeff 15*17 15*17 coul/long

kspace_style pppm 1.0e-4

# Apply distance-dependent dielectric and correction factor
pair_coeff 1 1 coul/diel ${myDielectric}  6.86 0.5
pair_coeff 1 1 coul/diel 78  6.86 0.5
pair_coeff 1 15 coul/diel ${myDielectric} 3.44 1.25
pair_coeff 1 15 coul/diel 78 3.44 1.25
pair_coeff 1 16 coul/diel ${myDielectric} 3.75 1.00
pair_coeff 1 16 coul/diel 78 3.75 1.00
pair_coeff 1 17 coul/diel ${myDielectric}  4.2 0.5
pair_coeff 1 17 coul/diel 78  4.2 0.5
pair_coeff 15 15 coul/diel ${myDielectric} 2.7 0.57
pair_coeff 15 15 coul/diel 78 2.7 0.57
pair_coeff 15 16 coul/diel ${myDielectric} 2.37 0.5
pair_coeff 15 16 coul/diel 78 2.37 0.5
pair_coeff 15 17 coul/diel ${myDielectric} 3.9 2.06
pair_coeff 15 17 coul/diel 78 3.9 2.06
pair_coeff 16 16 coul/diel ${myDielectric} 1.412 0.5
pair_coeff 16 16 coul/diel 78 1.412 0.5
pair_coeff 16 17 coul/diel ${myDielectric} 4.48 0.57
pair_coeff 16 17 coul/diel 78 4.48 0.57
pair_coeff 17 17 coul/diel ${myDielectric} 4.2 0.56
pair_coeff 17 17 coul/diel 78 4.2 0.56

# Add hydration barriers
# First set of barriers (H r sigma)
pair_coeff 1 15 gauss/cut 1 3.15488 4.1 0.57
pair_coeff 1 16 gauss/cut 1 1.29063 6.1 0.5
pair_coeff 1 17 gauss/cut 1 0.83652 6.7 1.5
pair_coeff 15 15 gauss/cut 1 0.17925 5.8 0.57
pair_coeff 15 17 gauss/cut 1 5.49713 3.3 0.57
pair_coeff 16 17 gauss/cut 1 1.09943 5.48 0.44
pair_coeff 17 17 gauss/cut 1 0.23901 6.2 0.5

# Second set of barriers
pair_coeff 1 15  gauss/cut 2 0.47801 6.5 0.4
pair_coeff 1 16 gauss/cut 2 0.97992 8.3 1.2
pair_coeff 15 17 gauss/cut 2 0.47801 5.6 0.4
pair_coeff 16 17 gauss/cut 2 0.05975  8.16 0.35

# Specifying the mixing rules for cross interactions between the pair styles (excluded volume)
pair_coeff 1 2 lj/cut 0.239000 5.350000 6.005172
pair_coeff 1 3 lj/cut 0.239000 4.950000 5.556187
pair_coeff 1 4 lj/cut 0.239000 5.800000 6.510280
pair_coeff 1 5 lj/cut 0.239000 4.700000 5.275572
pair_coeff 1 6 lj/cut 0.239000 5.450000 6.117418
pair_coeff 1 7 lj/cut 0.239000 4.950000 5.556187
pair_coeff 1 8 lj/cut 0.239000 5.800000 6.510280
pair_coeff 1 9 lj/cut 0.239000 4.700000 5.275572
pair_coeff 1 10 lj/cut 0.239000 5.450000 6.117418
pair_coeff 1 11 lj/cut 0.239000 4.950000 5.556187
pair_coeff 1 12 lj/cut 0.239000 5.800000 6.510280
pair_coeff 1 13 lj/cut 0.239000 4.700000 5.275572
pair_coeff 1 14 lj/cut 0.239000 5.450000 6.117418
pair_coeff 2 15 lj/cut 0.239000 4.315000 4.843424
pair_coeff 3 15 lj/cut 0.239000 3.915000 4.394439
pair_coeff 4 15 lj/cut 0.239000 4.765000 5.348532
pair_coeff 5 15 lj/cut 0.239000 3.665000 4.113823
pair_coeff 6 15 lj/cut 0.239000 4.415000 4.955670
pair_coeff 7 15 lj/cut 0.239000 3.915000 4.394439
pair_coeff 8 15 lj/cut 0.239000 4.765000 5.348532
pair_coeff 9 15 lj/cut 0.239000 3.665000 4.113823
pair_coeff 10 15 lj/cut 0.239000 4.415000 4.955670
pair_coeff 11 15 lj/cut 0.239000 3.915000 4.394439
pair_coeff 12 15 lj/cut 0.239000 4.765000 5.348532
pair_coeff 13 15 lj/cut 0.239000 3.665000 4.113823
pair_coeff 14 15 lj/cut 0.239000 4.415000 4.955670
pair_coeff 2 16 lj/cut 0.239000 3.806000 4.272091
pair_coeff 3 16 lj/cut 0.239000 3.406000 3.823106
pair_coeff 4 16 lj/cut 0.239000 4.256000 4.777198
pair_coeff 5 16 lj/cut 0.239000 3.156000 3.542490
pair_coeff 6 16 lj/cut 0.239000 3.906000 4.384337
pair_coeff 7 16 lj/cut 0.239000 3.406000 3.823106
pair_coeff 8 16 lj/cut 0.239000 4.256000 4.777198
pair_coeff 9 16 lj/cut 0.239000 3.156000 3.542490
pair_coeff 10 16 lj/cut 0.239000 3.906000 4.384337
pair_coeff 11 16 lj/cut 0.239000 3.406000 3.823106
pair_coeff 12 16 lj/cut 0.239000 4.256000 4.777198
pair_coeff 13 16 lj/cut 0.239000 3.156000 3.542490
pair_coeff 14 16 lj/cut 0.239000 3.906000 4.384337
pair_coeff 2 17 lj/cut 0.239000 5.122500 5.749812
pair_coeff 3 17 lj/cut 0.239000 4.722500 5.300827
pair_coeff 4 17 lj/cut 0.239000 5.572500 6.254920
pair_coeff 5 17 lj/cut 0.239000 4.472500 5.020212
pair_coeff 6 17 lj/cut 0.239000 5.222500 5.862058
pair_coeff 7 17 lj/cut 0.239000 4.722500 5.300827
pair_coeff 8 17 lj/cut 0.239000 5.572500 6.254920
pair_coeff 9 17 lj/cut 0.239000 4.472500 5.020212
pair_coeff 10 17 lj/cut 0.239000 5.222500 5.862058
pair_coeff 11 17 lj/cut 0.239000 4.722500 5.300827
pair_coeff 12 17 lj/cut 0.239000 5.572500 6.254920
pair_coeff 13 17 lj/cut 0.239000 4.472500 5.020212
pair_coeff 14 17 lj/cut 0.239000 5.222500 5.862058

# Specify parameters for the neighbor list
neighbor	4.0 multi
neigh_modify    check yes

# A timestep of 0.02 ps
timestep 10.0

# Initialize velocities from a Gaussian distribution
velocity all create ${T} ${random} rot yes mom yes dist gaussian
velocity all create 300 ${random} rot yes mom yes dist gaussian
velocity all create 300 12345 rot yes mom yes dist gaussian

# Calculating the different components of the non-bonded energy
compute edna all pair 3spn2
variable ebp equal c_edna[1] # Base pairing energy
variable ecstk equal c_edna[2] # Cross stacking energy
variable eexcl equal c_edna[3] # Excluded volume energy
variable dna_ecoul equal c_edna[4] # DNA coulombic energy
variable nbp equal c_edna[5] # Number of base pairs

# Specifying the frequency of thermodynamic output
thermo 2000
thermo_style custom step v_nbp ebond eangle edihed v_ebp v_ecstk v_eexcl v_dna_ecoul temp

# Specifying a Langevin integrator to perform a simulation in the NVT ensemble
fix 1 all langevin ${T} ${T} 500 ${random} gjf yes
fix 1 all langevin 300 ${T} 500 ${random} gjf yes
fix 1 all langevin 300 300 500 ${random} gjf yes
fix 1 all langevin 300 300 500 12345 gjf yes
fix 2 all nve

# Write configuration to file
dump 1 all xyz 2000 traj.xyz

# Run X number of steps
run 50000
PPPM initialization ...
  using 12-bit tables for long-range coulomb (../kspace.cpp:323)
  G vector (1/distance) = 0.0893435
  grid = 18 18 18
  stencil order = 5
  estimated absolute RMS force accuracy = 0.00166946
  estimated relative force accuracy = 5.02754e-06
  using double precision KISS FFT
  3d grid and FFT values/proc = 12167 5832
Neighbor list info ...
  update every 1 steps, delay 10 steps, check yes
  max neighbors/atom: 2000, page size: 100000
  master list distance cutoff = 24
  ghost atom cutoff = 30
  binsize = 3.77124, bins = 47 47 47
  7 neighbor lists, perpetual/occasional/extra = 7 0 0
  (1) pair 3spn2, perpetual, skip from (7)
      attributes: half, newton on
      pair build: skip
      stencil: none
      bin: none
  (2) pair coul/long, perpetual, skip from (7)
      attributes: half, newton on
      pair build: skip
      stencil: none
      bin: none
  (3) pair coul/diel, perpetual, copy from (2)
      attributes: half, newton on
      pair build: copy
      stencil: none
      bin: none
  (4) pair gauss/cut, perpetual, skip from (7)
      attributes: half, newton on
      pair build: skip
      stencil: none
      bin: none
  (5) pair gauss/cut, perpetual, skip from (7)
      attributes: half, newton on
      pair build: skip
      stencil: none
      bin: none
  (6) pair lj/cut, perpetual, skip from (7)
      attributes: half, newton on
      pair build: skip
      stencil: none
      bin: none
  (7) neighbor class addition, perpetual
      attributes: half, newton on
      pair build: half/multi/newton
      stencil: half/multi/3d/newton
      bin: standard
Per MPI rank memory allocation (min/avg/max) = 14.46 | 14.46 | 14.46 Mbytes
Step v_nbp E_bond E_angle E_dihed v_ebp v_ecstk v_eexcl v_dna_ecoul Temp 
       0           32 0.0020119571   -196.16379   -172.08407   -145.07625    -38.32589            0            0          300 
    2000           27    27.779497   -112.08095   -151.49632   -130.66259   -27.438658  0.093340359            0     300.6955 
    4000           24    21.745891   -126.25639    -155.2326   -123.39776   -29.936498   0.20007463            0    299.62569 
    6000           30    28.464938   -116.73781   -157.09544   -134.32503   -32.844757   0.78309158            0    299.64522 
    8000           29    22.154385   -108.88441   -156.18802   -132.79643   -27.834149    1.0040268            0    294.20293 
   10000           25    31.409175   -111.53529   -152.61095   -120.33364   -26.984549    1.6062153            0      295.359 
   12000           25    21.056013   -109.89387   -157.17327   -123.18883   -26.246514   0.82413998            0    295.31134 
   14000           22    24.892679   -124.46754   -158.00409   -125.37665   -28.720708  0.046154546            0    278.53167 
   16000           29    25.239425   -109.03107   -154.91111   -133.29069     -29.4112   0.11607393            0    298.54829 
   18000           28    26.085694   -125.96353   -156.99318   -131.03991   -30.821168    0.1398991            0    302.76332 
   20000           27    21.166081   -126.82015   -154.54976   -131.01913   -30.384673   0.12894449            0    301.65863 
   22000           24    25.663252    -129.8171   -149.62498   -127.87793   -30.503942   0.43657567            0     296.5312 
   24000           24    30.069298   -112.97843   -153.53764   -123.85734   -26.620019   0.11444168            0    293.95047 
   26000           26    25.743938   -127.03169   -156.25396   -125.71771   -30.406147  0.060812135            0     291.1866 
   28000           26     21.96217   -118.06153   -156.60785   -124.63357   -26.480187  0.054618818            0    292.15291 
   30000           28    25.099055   -105.52376   -155.32774   -130.78639   -28.670749   0.14354677            0     300.4291 
   32000           27    25.988203   -120.44844   -158.16711   -127.66115   -29.341497    1.7881422            0    284.89606 
   34000           27    21.623573   -119.40615   -156.04213    -131.9584   -28.993658   0.10479439            0    298.44975 
   36000           28    29.887975   -119.35736   -154.97225   -130.18141   -26.990638   0.12822254            0    301.03848 
   38000           27    22.863559   -121.88995   -151.28752   -128.86288   -30.055578    0.6713371            0    297.98745 
   40000           24     31.40664   -116.16836   -154.47301   -127.07486   -29.072898   0.45964923            0    304.10988 
   42000           28    23.073027   -108.88945    -151.6012    -129.9667   -30.248359   0.25939681            0    290.51848 
   44000           28    27.839194   -120.79462   -154.90394   -131.33981   -27.201624  0.084510005            0    289.49126 
   46000           27    31.823681   -120.74553   -152.85738   -127.47991   -29.639988   0.53046297            0    302.47607 
   48000           25    27.971544   -129.58268   -155.67657   -125.07187   -28.408923  0.087845982            0    297.78972 
   50000           23    24.295072    -115.3752   -153.55174   -123.02635   -27.945491   0.47326994            0    292.81021 
Loop time of 108.129 on 1 procs for 50000 steps with 1079 atoms

Performance: 399.523 ns/day, 0.060 hours/ns, 462.411 timesteps/s
100.0% CPU use with 1 MPI tasks x no OpenMP threads

MPI task timing breakdown:
Section |  min time  |  avg time  |  max time  |%varavg| %total
---------------------------------------------------------------
Pair    | 24.684     | 24.684     | 24.684     |   0.0 | 22.83
Bond    | 2.2773     | 2.2773     | 2.2773     |   0.0 |  2.11
Kspace  | 69.766     | 69.766     | 69.766     |   0.0 | 64.52
Neigh   | 8.056      | 8.056      | 8.056      |   0.0 |  7.45
Comm    | 0.39601    | 0.39601    | 0.39601    |   0.0 |  0.37
Output  | 0.029607   | 0.029607   | 0.029607   |   0.0 |  0.03
Modify  | 2.7559     | 2.7559     | 2.7559     |   0.0 |  2.55
Other   |            | 0.1635     |            |       |  0.15

Nlocal:    1079 ave 1079 max 1079 min
Histogram: 1 0 0 0 0 0 0 0 0 0
Nghost:    1209 ave 1209 max 1209 min
Histogram: 1 0 0 0 0 0 0 0 0 0
Neighs:    3028 ave 3028 max 3028 min
Histogram: 1 0 0 0 0 0 0 0 0 0

Total # of neighbors = 3028
Ave neighs/atom = 2.8063
Ave special neighs/atom = 1.25672
Neighbor list builds = 2949
Dangerous builds = 0

Please see the log.cite file for references relevant to this simulation

Total wall time: 0:01:48
